p tw 107 119
1 2
2 20
3 11
4 5
5 6
6 70
7 8
8 9
9 10
11 12
12 13
13 14
14 15
14 35
15 16
16 17
17 18
18 19
18 33
19 21
19 25
20 31
21 22
22 23
23 24
24 25
24 27
25 26
26 9
27 28
28 29
29 30
30 32
31 42
32 33
33 34
34 9
35 36
36 37
37 38
38 39
39 40
40 41
40 45
41 43
42 53
43 44
44 45
45 46
46 47
47 48
48 49
49 50
50 51
51 52
52 54
52 67
53 64
53 75
54 55
54 59
55 56
56 57
57 58
58 59
58 61
59 60
60 9
61 62
62 63
63 65
64 9
65 66
66 67
67 68
68 69
69 70
70 71
71 72
72 73
72 7
73 74
74 76
75 86
76 77
77 78
78 79
79 80
80 81
81 82
82 83
83 84
84 85
85 87
86 97
87 88
88 89
88 92
89 90
90 91
91 107
92 93
93 94
93 99
94 95
95 96
96 98
97 3
98 99
98 103
99 100
100 101
101 102
102 9
103 104
104 105
105 106
106 107
107 4
